n = 150; 
peso = [133, 136, 27, 115, 143, 85, 136, 42, 99, 121, 62, 127, 140, 109, 113, 76, 90, 126, 22, 136, 11, 68, 117, 129, 32, 80, 62, 73, 67, 85, 29, 102, 72, 108, 119, 117, 43, 106, 61, 142, 129, 123, 21, 119, 134, 37, 98, 74, 65, 120, 113, 76, 91, 80, 56, 123, 62, 20, 46, 31, 105, 75, 134, 27, 86, 5, 46, 129, 13, 107, 24, 45, 132, 45, 14, 117, 134, 14, 93, 50, 37, 108, 126, 128, 38, 84, 3, 101, 104, 49, 132, 60, 26, 18, 139, 112, 76, 36, 144, 89, 45, 70, 134, 28, 17, 51, 47, 2, 117, 42, 52, 56, 1, 80, 86, 91, 15, 89, 94, 119, 40, 129, 81, 67, 147, 71, 81, 125, 9, 127, 117, 106, 47, 3, 36, 65, 106, 83, 119, 74, 28, 21, 32, 29, 3, 119, 120, 18, 58,  65];
